p td 147 1255
1 32
1 14
1 2
1 68
1 38
1 135
1 10
1 11
1 12
1 13
1 46
1 15
1 16
1 19
1 20
1 21
1 122
1 47
2 32
2 68
2 38
2 135
2 10
2 11
2 12
2 13
2 46
2 15
2 16
2 14
2 20
2 21
2 122
2 47
2 19
3 65
3 66
3 4
3 69
3 70
3 17
3 28
3 75
3 76
3 114
3 143
3 145
3 18
3 115
3 147
3 59
3 60
3 29
4 65
4 66
4 147
4 69
4 70
4 145
4 60
4 75
4 76
4 114
4 143
4 17
4 18
4 115
4 59
4 28
4 29
5 9
5 6
6 9
7 33
7 34
7 35
7 39
7 8
7 41
7 42
7 45
7 109
7 40
7 50
7 67
7 25
7 22
7 23
7 24
7 57
7 58
8 33
8 34
8 67
8 40
8 41
8 42
8 39
8 109
8 45
8 50
8 35
8 25
8 22
8 23
8 24
8 57
8 58
10 32
10 68
10 38
10 135
10 11
10 12
10 13
10 14
10 15
10 16
10 19
10 20
10 21
10 46
10 122
10 47
11 32
11 68
11 38
11 135
11 46
11 12
11 13
11 14
11 15
11 16
11 19
11 20
11 21
11 122
11 47
12 32
12 68
12 38
12 135
12 13
12 14
12 15
12 16
12 19
12 20
12 21
12 46
12 122
12 47
13 32
13 14
13 68
13 38
13 135
13 46
13 15
13 16
13 19
13 20
13 21
13 122
13 47
14 32
14 68
14 38
14 135
14 46
14 15
14 16
14 19
14 20
14 21
14 122
14 47
15 32
15 68
15 38
15 135
15 47
15 16
15 19
15 20
15 21
15 46
15 122
16 32
16 68
16 38
16 135
16 46
16 47
16 19
16 20
16 122
16 21
17 65
17 66
17 69
17 70
17 28
17 75
17 76
17 114
17 143
17 145
17 18
17 115
17 147
17 59
17 60
17 29
18 65
18 66
18 69
18 70
18 145
18 60
18 75
18 76
18 143
18 114
18 115
18 147
18 59
18 28
18 29
19 32
19 68
19 38
19 135
19 46
19 47
19 20
19 21
19 122
20 32
20 68
20 38
20 135
20 21
20 46
20 122
20 47
21 32
21 68
21 38
21 135
21 46
21 122
21 47
22 33
22 34
22 35
22 39
22 40
22 41
22 42
22 45
22 109
22 50
22 67
22 57
22 23
22 24
22 25
22 58
23 33
23 34
23 35
23 39
23 40
23 41
23 42
23 109
23 45
23 50
23 67
23 25
23 24
23 57
23 58
24 33
24 34
24 35
24 39
24 40
24 41
24 42
24 45
24 109
24 50
24 67
24 57
24 25
24 58
25 33
25 34
25 67
25 39
25 40
25 41
25 42
25 109
25 45
25 50
25 35
25 57
25 58
26 80
26 98
26 97
26 104
26 105
26 107
26 108
26 110
26 79
26 112
26 113
26 116
26 85
26 86
26 120
26 111
26 27
26 125
27 97
27 98
27 80
27 104
27 105
27 107
27 108
27 110
27 79
27 112
27 113
27 116
27 85
27 86
27 120
27 111
27 125
28 65
28 66
28 69
28 70
28 75
28 76
28 114
28 143
28 145
28 115
28 147
28 59
28 60
28 29
29 65
29 66
29 69
29 70
29 60
29 75
29 76
29 114
29 143
29 145
29 115
29 147
29 59
30 96
30 100
30 99
30 132
30 133
30 134
30 73
30 95
30 74
30 106
30 87
30 88
30 89
30 90
30 31
30 93
30 94
30 101
31 96
31 100
31 99
31 132
31 101
31 134
31 73
31 106
31 93
31 94
31 87
31 88
31 89
31 90
31 95
31 74
31 133
32 68
32 38
32 135
32 46
32 47
32 122
33 34
33 35
33 41
33 42
33 39
33 45
33 109
33 40
33 50
33 67
33 57
33 58
34 35
34 39
34 40
34 41
34 42
34 109
34 45
34 50
34 67
34 57
34 58
35 67
35 41
35 42
35 39
35 109
35 45
35 40
35 50
35 57
35 58
36 64
36 51
36 37
36 102
36 103
36 43
36 44
36 81
36 82
36 83
36 84
36 117
36 52
36 91
36 92
36 61
36 62
36 63
37 64
37 83
37 102
37 103
37 43
37 44
37 81
37 82
37 51
37 84
37 117
37 52
37 91
37 92
37 61
37 62
37 63
38 68
38 135
38 46
38 122
38 47
39 67
39 40
39 41
39 42
39 109
39 45
39 50
39 57
39 58
40 67
40 41
40 42
40 109
40 45
40 50
40 57
40 58
41 67
41 42
41 109
41 45
41 50
41 57
41 58
42 67
42 45
42 109
42 50
42 57
42 58
43 64
43 83
43 102
43 103
43 44
43 81
43 82
43 51
43 84
43 117
43 52
43 91
43 92
43 61
43 62
43 63
44 64
44 83
44 102
44 103
44 81
44 82
44 51
44 84
44 117
44 52
44 91
44 92
44 61
44 62
44 63
45 67
45 109
45 50
45 57
45 58
46 68
46 135
46 47
46 122
47 68
47 135
47 122
48 71
48 72
48 77
48 78
48 49
48 53
48 54
48 55
48 56
48 126
49 71
49 72
49 77
49 78
49 53
49 54
49 55
49 56
49 126
50 67
50 109
50 57
50 58
51 64
51 102
51 103
51 81
51 82
51 83
51 52
51 117
51 84
51 91
51 92
51 61
51 62
51 63
52 64
52 102
52 103
52 81
52 82
52 83
52 84
52 117
52 91
52 92
52 61
52 62
52 63
53 71
53 72
53 77
53 78
53 54
53 55
53 56
53 126
54 71
54 72
54 77
54 78
54 55
54 56
54 126
55 71
55 72
55 77
55 78
55 56
55 126
56 71
56 72
56 77
56 78
56 126
57 109
57 67
57 58
58 67
58 109
59 65
59 66
59 69
59 70
59 75
59 76
59 114
59 143
59 145
59 115
59 147
59 60
60 65
60 66
60 69
60 70
60 145
60 75
60 76
60 114
60 143
60 115
60 147
61 64
61 102
61 103
61 81
61 82
61 83
61 84
61 117
61 91
61 92
61 62
61 63
62 64
62 83
62 102
62 103
62 81
62 82
62 84
62 117
62 91
62 92
62 63
63 64
63 102
63 103
63 81
63 82
63 83
63 117
63 84
63 91
63 92
64 102
64 103
64 81
64 82
64 83
64 117
64 84
64 91
64 92
65 66
65 69
65 70
65 75
65 76
65 143
65 145
65 114
65 115
65 147
66 69
66 70
66 145
66 75
66 76
66 143
66 114
66 115
66 147
67 109
68 135
68 122
69 70
69 75
69 76
69 114
69 143
69 145
69 115
69 147
70 145
70 75
70 76
70 143
70 114
70 115
70 147
71 72
71 77
71 78
71 126
72 77
72 78
72 126
73 133
73 96
73 99
73 132
73 101
73 134
73 74
73 93
73 94
73 87
73 88
73 89
73 90
73 95
73 100
73 106
74 133
74 96
74 99
74 132
74 101
74 134
74 106
74 87
74 88
74 89
74 90
74 95
74 100
74 93
74 94
75 76
75 114
75 143
75 115
75 145
75 147
76 143
76 145
76 114
76 115
76 147
77 78
77 126
78 126
79 112
79 98
79 97
79 104
79 105
79 107
79 108
79 110
79 111
79 80
79 113
79 116
79 85
79 86
79 120
79 125
80 97
80 98
80 104
80 105
80 107
80 108
80 110
80 112
80 113
80 116
80 85
80 86
80 120
80 111
80 125
81 83
81 102
81 103
81 82
81 84
81 117
81 91
81 92
82 83
82 102
82 103
82 84
82 117
82 91
82 92
83 102
83 103
83 117
83 84
83 91
83 92
84 102
84 103
84 117
84 91
84 92
85 112
85 98
85 107
85 97
85 104
85 105
85 111
85 108
85 110
85 113
85 116
85 86
85 120
85 125
86 97
86 98
86 107
86 104
86 105
86 111
86 108
86 110
86 112
86 113
86 116
86 120
86 125
87 133
87 96
87 99
87 132
87 101
87 134
87 93
87 88
87 89
87 90
87 95
87 100
87 106
87 94
88 96
88 100
88 99
88 132
88 133
88 134
88 106
88 89
88 90
88 101
88 93
88 94
88 95
89 133
89 96
89 99
89 100
89 101
89 134
89 106
89 93
89 132
89 90
89 95
89 94
90 96
90 133
90 132
90 99
90 100
90 101
90 134
90 106
90 93
90 94
90 95
91 102
91 103
91 117
91 92
92 102
92 103
92 117
93 133
93 100
93 99
93 132
93 101
93 134
93 96
93 95
93 106
93 94
94 96
94 132
94 99
94 100
94 133
94 134
94 106
94 101
94 95
95 96
95 133
95 99
95 100
95 101
95 134
95 132
95 106
96 133
96 99
96 100
96 101
96 134
96 106
96 132
97 98
97 104
97 105
97 107
97 108
97 110
97 111
97 112
97 113
97 116
97 120
97 125
98 104
98 105
98 107
98 108
98 110
98 111
98 112
98 113
98 116
98 120
98 125
99 133
99 100
99 101
99 134
99 106
99 132
100 133
100 132
100 101
100 134
100 106
101 132
101 133
101 134
101 106
102 103
102 117
103 117
104 105
104 107
104 108
104 110
104 111
104 112
104 113
104 116
104 120
104 125
105 107
105 108
105 110
105 112
105 113
105 116
105 120
105 111
105 125
106 132
106 133
106 134
107 108
107 110
107 111
107 112
107 113
107 116
107 120
107 125
108 110
108 112
108 113
108 116
108 120
108 111
108 125
110 111
110 112
110 113
110 116
110 120
110 125
111 112
111 113
111 116
111 120
111 125
112 113
112 116
112 120
112 125
113 116
113 120
113 125
114 145
114 143
114 115
114 147
115 145
115 143
115 147
116 120
116 125
118 128
118 129
118 130
118 131
118 136
118 137
118 138
118 139
118 140
118 141
118 142
118 144
118 146
118 119
118 121
118 123
118 124
118 127
119 128
119 129
119 130
119 131
119 136
119 137
119 138
119 139
119 140
119 141
119 142
119 144
119 146
119 121
119 123
119 124
119 127
120 125
121 128
121 129
121 130
121 131
121 136
121 137
121 138
121 139
121 140
121 141
121 142
121 144
121 146
121 123
121 124
121 127
122 135
123 128
123 129
123 130
123 131
123 136
123 137
123 138
123 139
123 140
123 141
123 142
123 144
123 146
123 124
123 127
124 128
124 129
124 130
124 131
124 136
124 137
124 138
124 139
124 140
124 141
124 142
124 144
124 146
124 127
127 128
127 129
127 130
127 131
127 136
127 137
127 138
127 139
127 140
127 141
127 142
127 144
127 146
128 129
128 130
128 131
128 136
128 137
128 138
128 139
128 140
128 141
128 142
128 144
128 146
129 130
129 131
129 136
129 137
129 138
129 139
129 140
129 141
129 142
129 144
129 146
130 131
130 136
130 137
130 138
130 139
130 140
130 141
130 142
130 144
130 146
131 136
131 137
131 138
131 139
131 140
131 141
131 142
131 144
131 146
132 133
132 134
133 134
136 137
136 138
136 139
136 140
136 141
136 142
136 144
136 146
137 138
137 139
137 140
137 141
137 142
137 144
137 146
138 139
138 140
138 141
138 142
138 144
138 146
139 140
139 141
139 142
139 144
139 146
140 141
140 142
140 144
140 146
141 142
141 144
141 146
142 144
142 146
143 145
143 147
144 146
145 147
